objective value:                    -5.37122031834741
h-1,7                                            0.01 	(obj:0)
h-1,12                                           0.01 	(obj:0)
h-1,13                                           0.01 	(obj:0)
h-1,40                                           0.01 	(obj:0)
h-1,41                                           0.01 	(obj:0)
h-1,45                                           0.01 	(obj:0)
h-1,46                                           0.01 	(obj:0)
h-1,48                                           0.01 	(obj:0)
h-1,49                                           0.01 	(obj:0)
h-1,63                                           0.01 	(obj:0)
h-1,64                                           0.01 	(obj:0)
h-1,65                                           0.01 	(obj:0)
h-1,66                                           0.01 	(obj:0)
h-1,67                                           0.01 	(obj:0)
h-1,68                                           0.01 	(obj:0)
h-1,69                                           0.01 	(obj:0)
h-1,70                                           0.01 	(obj:0)
h-1,73                                           0.01 	(obj:0)
h-1,74                                           0.01 	(obj:0)
h-1,75                                           0.01 	(obj:0)
h-1,76                                           0.01 	(obj:0)
h-1,77                                           0.01 	(obj:0)
h-1,78                                           0.01 	(obj:0)
h-1,79                                           0.01 	(obj:0)
h-1,87                                           0.01 	(obj:0)
h-1,88                                           0.01 	(obj:0)
h-1,92                                           0.01 	(obj:0)
h-1,93                                           0.01 	(obj:0)
h-1,94                                           0.01 	(obj:0)
h-1,95                                           0.01 	(obj:0)
h-1,100                                          0.01 	(obj:0)
h-1,101                                          0.01 	(obj:0)
h-1,102                                          0.01 	(obj:0)
h-1,103                                          0.01 	(obj:0)
h-1,104                                          0.01 	(obj:0)
h-1,105                                          0.01 	(obj:0)
h-1,106                                          0.01 	(obj:0)
h-1,107                                          0.01 	(obj:0)
h-1,116                                          0.01 	(obj:0)
h-1,128                             0.139019613862038 	(obj:0)
h-1,129                             0.986078431606293 	(obj:0)
h-1,130                             0.417450984716415 	(obj:0)
h-1,133                                          0.01 	(obj:0)
h-1,134                                          0.01 	(obj:0)
h-1,135                                          0.01 	(obj:0)
h-1,142                                          0.01 	(obj:0)
h-1,150                                          0.01 	(obj:0)
h-1,156                             0.331176480054855 	(obj:0)
h-1,157                             0.998235294818878 	(obj:0)
h-1,158                             0.331568638086319 	(obj:0)
h-1,159                                          0.01 	(obj:0)
h-1,160                                          0.01 	(obj:0)
h-1,161                                          0.01 	(obj:0)
h-1,162                                          0.01 	(obj:0)
h-1,163                                          0.01 	(obj:0)
h-1,167                                          0.01 	(obj:0)
h-1,175                                          0.01 	(obj:0)
h-1,184                             0.519411792755127 	(obj:0)
h-1,185                             0.935098042488098 	(obj:0)
h-1,187                                          0.01 	(obj:0)
h-1,188                                          0.01 	(obj:0)
h-1,189                                          0.01 	(obj:0)
h-1,190                                          0.01 	(obj:0)
h-1,191                                          0.01 	(obj:0)
h-1,195                                          0.01 	(obj:0)
h-1,203                                          0.01 	(obj:0)
h-1,207                                          0.01 	(obj:0)
h-1,211                             0.166470592617989 	(obj:0)
h-1,212                              0.94686274766922 	(obj:0)
h-1,213                             0.578235318660736 	(obj:0)
h-1,217                                          0.01 	(obj:0)
h-1,219                                          0.01 	(obj:0)
h-1,233                                          0.01 	(obj:0)
h-1,235                                          0.01 	(obj:0)
h-1,239                             0.319411774873734 	(obj:0)
h-1,240                             0.986078431606293 	(obj:0)
h-1,241                              0.23705882370472 	(obj:0)
h-1,247                                          0.01 	(obj:0)
h-1,262                                          0.01 	(obj:0)
h-1,263                                          0.01 	(obj:0)
h-1,264                                          0.01 	(obj:0)
h-1,265                                          0.01 	(obj:0)
h-1,267                             0.782156875133514 	(obj:0)
h-1,268                             0.864509811401367 	(obj:0)
h-1,269                            0.0331372560560703 	(obj:0)
h-1,271                                          0.01 	(obj:0)
h-1,275                                          0.01 	(obj:0)
h-1,276                                          0.01 	(obj:0)
h-1,288                                          0.01 	(obj:0)
h-1,289                                          0.01 	(obj:0)
h-1,290                                          0.01 	(obj:0)
h-1,291                                          0.01 	(obj:0)
h-1,292                                          0.01 	(obj:0)
h-1,293                                          0.01 	(obj:0)
h-1,294                             0.115490203499794 	(obj:0)
h-1,295                             0.986078431606293 	(obj:0)
h-1,296                             0.837058832645416 	(obj:0)
h-1,303                                          0.01 	(obj:0)
h-1,304                                          0.01 	(obj:0)
h-1,314                                          0.01 	(obj:0)
h-1,315                                          0.01 	(obj:0)
h-1,316                                          0.01 	(obj:0)
h-1,317                                          0.01 	(obj:0)
h-1,318                                          0.01 	(obj:0)
h-1,322                             0.362549027204514 	(obj:0)
h-1,323                             0.986078431606293 	(obj:0)
h-1,324                             0.754705896377563 	(obj:0)
h-1,329                                          0.01 	(obj:0)
h-1,331                                          0.01 	(obj:0)
h-1,332                                          0.01 	(obj:0)
h-1,341                                          0.01 	(obj:0)
h-1,342                                          0.01 	(obj:0)
h-1,344                                          0.01 	(obj:0)
h-1,347                                          0.01 	(obj:0)
h-1,348                                          0.01 	(obj:0)
h-1,350                             0.539019634723663 	(obj:0)
h-1,351                             0.986078431606293 	(obj:0)
h-1,352                             0.291960796117783 	(obj:0)
h-1,357                                          0.01 	(obj:0)
h-1,358                                          0.01 	(obj:0)
h-1,359                                          0.01 	(obj:0)
h-1,360                                          0.01 	(obj:0)
h-1,369                                          0.01 	(obj:0)
h-1,370                                          0.01 	(obj:0)
h-1,374                                          0.01 	(obj:0)
h-1,375                                          0.01 	(obj:0)
h-1,377                             0.213529413342476 	(obj:0)
h-1,378                             0.919411768913269 	(obj:0)
h-1,379                             0.793921580314636 	(obj:0)
h-1,380                            0.0213725508749485 	(obj:0)
h-1,385                                          0.01 	(obj:0)
h-1,386                                          0.01 	(obj:0)
h-1,387                                          0.01 	(obj:0)
h-1,388                                          0.01 	(obj:0)
h-1,396                                          0.01 	(obj:0)
h-1,397                                          0.01 	(obj:0)
h-1,398                                          0.01 	(obj:0)
h-1,399                                          0.01 	(obj:0)
h-1,401                                          0.01 	(obj:0)
h-1,402                                          0.01 	(obj:0)
h-1,403                                          0.01 	(obj:0)
h-1,405                             0.476274510622025 	(obj:0)
h-1,406                                          0.99 	(obj:0)
h-1,407                             0.637058844566345 	(obj:0)
h-1,411                                          0.01 	(obj:0)
h-1,412                                          0.01 	(obj:0)
h-1,413                                          0.01 	(obj:0)
h-1,414                                          0.01 	(obj:0)
h-1,415                                          0.01 	(obj:0)
h-1,416                                          0.01 	(obj:0)
h-1,424                                          0.01 	(obj:0)
h-1,425                                          0.01 	(obj:0)
h-1,426                                          0.01 	(obj:0)
h-1,427                                          0.01 	(obj:0)
h-1,428                                          0.01 	(obj:0)
h-1,429                                          0.01 	(obj:0)
h-1,430                                          0.01 	(obj:0)
h-1,433                             0.660588254928589 	(obj:0)
h-1,434                             0.986078431606293 	(obj:0)
h-1,435                             0.307647069692612 	(obj:0)
h-1,438                                          0.01 	(obj:0)
h-1,439                                          0.01 	(obj:0)
h-1,440                                          0.01 	(obj:0)
h-1,441                                          0.01 	(obj:0)
h-1,442                                          0.01 	(obj:0)
h-1,443                                          0.01 	(obj:0)
h-1,444                                          0.01 	(obj:0)
h-1,445                                          0.01 	(obj:0)
h-1,453                                          0.01 	(obj:0)
h-1,454                                          0.01 	(obj:0)
h-1,455                                          0.01 	(obj:0)
h-1,456                                          0.01 	(obj:0)
h-1,457                                          0.01 	(obj:0)
h-1,458                                          0.01 	(obj:0)
h-1,459                                          0.01 	(obj:0)
h-1,460                            0.0841176488995552 	(obj:0)
h-1,461                             0.899803926944733 	(obj:0)
h-1,462                             0.833137264251709 	(obj:0)
h-1,463                                          0.01 	(obj:0)
h-1,465                                          0.01 	(obj:0)
h-1,466                                          0.01 	(obj:0)
h-1,467                                          0.01 	(obj:0)
h-1,468                                          0.01 	(obj:0)
h-1,469                                          0.01 	(obj:0)
h-1,470                                          0.01 	(obj:0)
h-1,471                                          0.01 	(obj:0)
h-1,472                                          0.01 	(obj:0)
h-1,473                                          0.01 	(obj:0)
h-1,481                                          0.01 	(obj:0)
h-1,482                                          0.01 	(obj:0)
h-1,483                                          0.01 	(obj:0)
h-1,484                                          0.01 	(obj:0)
h-1,485                                          0.01 	(obj:0)
h-1,486                                          0.01 	(obj:0)
h-1,487                                          0.01 	(obj:0)
h-1,488                             0.460588237047195 	(obj:0)
h-1,489                             0.986078431606293 	(obj:0)
h-1,490                             0.613529434204102 	(obj:0)
h-1,491                                          0.01 	(obj:0)
h-1,492                                          0.01 	(obj:0)
h-1,493                                          0.01 	(obj:0)
h-1,494                                          0.01 	(obj:0)
h-1,495                                          0.01 	(obj:0)
h-1,496                                          0.01 	(obj:0)
h-1,497                                          0.01 	(obj:0)
h-1,498                                          0.01 	(obj:0)
h-1,499                                          0.01 	(obj:0)
h-1,500                                          0.01 	(obj:0)
h-1,501                                          0.01 	(obj:0)
h-1,509                                          0.01 	(obj:0)
h-1,511                                          0.01 	(obj:0)
h-1,512                                          0.01 	(obj:0)
h-1,513                                          0.01 	(obj:0)
h-1,514                                          0.01 	(obj:0)
h-1,515                                          0.01 	(obj:0)
h-1,516                             0.602156887054443 	(obj:0)
h-1,517                                             1 	(obj:0)
h-1,518                             0.546862771511078 	(obj:0)
h-1,520                                          0.01 	(obj:0)
h-1,521                                          0.01 	(obj:0)
h-1,522                                          0.01 	(obj:0)
h-1,523                                          0.01 	(obj:0)
h-1,527                                          0.01 	(obj:0)
h-1,528                                          0.01 	(obj:0)
h-1,538                                          0.01 	(obj:0)
h-1,540                                          0.01 	(obj:0)
h-1,542                                          0.01 	(obj:0)
h-1,543                                          0.01 	(obj:0)
h-1,544                             0.904117653369904 	(obj:0)
h-1,545                                             1 	(obj:0)
h-1,546                             0.268823543787003 	(obj:0)
h-1,547                                          0.01 	(obj:0)
h-1,548                                          0.01 	(obj:0)
h-1,549                                          0.01 	(obj:0)
h-1,550                                          0.01 	(obj:0)
h-1,551                                          0.01 	(obj:0)
h-1,552                                          0.01 	(obj:0)
h-1,554                                          0.01 	(obj:0)
h-1,556                                          0.01 	(obj:0)
h-1,565                                          0.01 	(obj:0)
h-1,570                                          0.01 	(obj:0)
h-1,571                             0.249215686917305 	(obj:0)
h-1,572                             0.994313726425171 	(obj:0)
h-1,573                                             1 	(obj:0)
h-1,574                             0.268823543787003 	(obj:0)
h-1,575                                          0.01 	(obj:0)
h-1,576                                          0.01 	(obj:0)
h-1,577                                          0.01 	(obj:0)
h-1,578                                          0.01 	(obj:0)
h-1,581                                          0.01 	(obj:0)
h-1,583                                          0.01 	(obj:0)
h-1,584                                          0.01 	(obj:0)
h-1,597                                          0.01 	(obj:0)
h-1,599                             0.562941203117371 	(obj:0)
h-1,600                                             1 	(obj:0)
h-1,601                             0.813921580314636 	(obj:0)
h-1,602                            0.0217647061124444 	(obj:0)
h-1,603                                          0.01 	(obj:0)
h-1,604                                          0.01 	(obj:0)
h-1,605                                          0.01 	(obj:0)
h-1,606                                          0.01 	(obj:0)
h-1,607                                          0.01 	(obj:0)
h-1,608                                          0.01 	(obj:0)
h-1,609                                          0.01 	(obj:0)
h-1,610                                          0.01 	(obj:0)
h-1,611                                          0.01 	(obj:0)
h-1,612                                          0.01 	(obj:0)
h-1,613                                          0.01 	(obj:0)
h-1,614                                          0.01 	(obj:0)
h-1,625                                          0.01 	(obj:0)
h-1,626                            0.0292156876623631 	(obj:0)
h-1,627                             0.853137264251709 	(obj:0)
h-1,628                                             1 	(obj:0)
h-1,629                             0.484509805440903 	(obj:0)
h-1,631                                          0.01 	(obj:0)
h-1,632                                          0.01 	(obj:0)
h-1,634                                          0.01 	(obj:0)
h-1,636                                          0.01 	(obj:0)
h-1,637                                          0.01 	(obj:0)
h-1,638                                          0.01 	(obj:0)
h-1,639                                          0.01 	(obj:0)
h-1,640                                          0.01 	(obj:0)
h-1,642                                          0.01 	(obj:0)
h-1,654                           0.00960784383118152 	(obj:0)
h-1,655                             0.766470601558685 	(obj:0)
h-1,656                             0.680196096897125 	(obj:0)
h-1,657                            0.0292156876623631 	(obj:0)
h-1,660                                          0.01 	(obj:0)
h-1,664                                          0.01 	(obj:0)
h-1,665                                          0.01 	(obj:0)
h-1,666                                          0.01 	(obj:0)
h-1,667                                          0.01 	(obj:0)
h-1,691                                          0.01 	(obj:0)
h-1,692                                          0.01 	(obj:0)
h-1,693                                          0.01 	(obj:0)
h-1,694                                          0.01 	(obj:0)
h-1,695                                          0.01 	(obj:0)
h-1,696                                          0.01 	(obj:0)
h-1,697                                          0.01 	(obj:0)
h-1,698                                          0.01 	(obj:0)
h-1,703                                          0.01 	(obj:0)
h-1,722                                          0.01 	(obj:0)
h-1,723                                          0.01 	(obj:0)
h-1,725                                          0.01 	(obj:0)
h-1,726                                          0.01 	(obj:0)
h-1,732                                          0.01 	(obj:0)
h-1,733                                          0.01 	(obj:0)
h-1,734                                          0.01 	(obj:0)
h-1,751                                          0.01 	(obj:0)
h-1,776                                          0.01 	(obj:0)
z0,0                                 2.73639400603324 	(obj:0)
a0,0                                 2.73639400603324 	(obj:0)
z0,1                               -0.960572196806508 	(obj:0)
z0,2                                0.451319001461833 	(obj:0)
a0,2                                0.451319001461833 	(obj:0)
z0,3                                 3.21376305461939 	(obj:0)
a0,3                                 3.21376305461939 	(obj:0)
z0,4                                  4.9205394697211 	(obj:0)
a0,4                                  4.9205394697211 	(obj:0)
z1,0                                -5.67060904118335 	(obj:0)
z1,1                                 5.37122031834741 	(obj:0)
a1,1                                 5.37122031834741 	(obj:-1)
z1,2                                 2.12369451483347 	(obj:0)
a1,2                                 2.12369451483347 	(obj:0)
z1,3                                 1.85744513439795 	(obj:0)
a1,3                                 1.85744513439795 	(obj:0)
z1,4                                -1.49982358843774 	(obj:0)
z1,5                                -3.29149572996293 	(obj:0)
z1,6                                -1.87573440024485 	(obj:0)
z1,7                                -2.00475519321085 	(obj:0)
z1,8                                 1.33690436199533 	(obj:0)
a1,8                                 1.33690436199533 	(obj:0)
z1,9                                0.102085097614013 	(obj:0)
a1,9                                0.102085097614013 	(obj:0)
